100
128
6
45
32
48
63
9
20
59
30
44
1
52
37
36
54
32
18
31
22
31
29
56
55
38
33
44
22
32
21
48
1
53
43
46
20
1
44
10
1
14
63
20
17
45
15
50
10
12
51
46
2
22
43
13
18
15
22
29
30
25
3
24
16
19
12
28
17
24
32
14
13
28
13
32
40
5
14
21
16
56
21
21
2
42
45
21
20
13
16
23
21
2
16
3
16
15
25
20
23
60